c --- [ banner ] -------------------------------------------------------------
c 
c CaDiCaL Radically Simplified CDCL SAT Solver
c Copyright (c) 2016-2021 A. Biere, M. Fleury, N. Froleyks
c 
c Version 1.5.2 a5f15211db36c3956764e18194dd5bd63bf3b5e6
c g++ (GCC) 9.3.0 -Wall -Wextra -O3 -DNDEBUG
c Fri Oct 21 01:27:37 EDT 2022 Linux gra-login3 3.10.0-1160.66.1.el7.x86_64 x86_64
c 
c --- [ limit ] --------------------------------------------------------------
c 
c setting conflict limit to 200000 conflicts (due to '200000')
c 
c --- [ parsing input ] ------------------------------------------------------
c 
c reading DIMACS file from '33.cubes6612.adj'
c opening file to read '33.cubes6612.adj'
c found 'p cnf 6160 1595479' header
c parsed 1595479 clauses in 19.80 seconds process time
c closing file '33.cubes6612.adj'
c after reading 1457566801 bytes 1390.0 MB
c 
c --- [ options ] ------------------------------------------------------------
c 
c all options are set to their default value
c 
c --- [ solving ] ------------------------------------------------------------
c 
c time measured in process time since initialization
c 
c  seconds    reductions  redundant   irredundant
c          MB     restarts       trail       variables
c            level   conflicts       glue         remaining
c 
c * 19.80 1377  0 0   0    0    0  0% 0 1595422 2362 38%
c { 21.21 1431  0 0   0    0    0  0% 0 1595422 2362 38%
c i 22.62 1466 1079 0   0   32   25 39% 6 1595422 2361 38%
c i 22.64 1466 1092 0   0   38   27 40% 7 1595422 2360 38%
c i 22.94 1468 738 0   0   80   65 39% 7 1595422 2359 38%
c i 23.01 1468 537 0   0  121   94 36% 6 1595422 2358 38%
c i 24.09 1482 453 0   4  145  115 34% 13 1595422 2347 38%
c i 24.17 1482 443 0   5  148  117 34% 14 1595422 2346 38%
c i 24.45 1486 414 0   8  161  127 34% 16 1595422 2343 38%
c i 25.23 1491 378 0  15  185  149 33% 21 1595422 2309 37%
c i 26.27 1496 334 0  22  220  180 32% 27 1595422 2308 37%
c i 26.60 1498 302 0  30  248  204 32% 29 1595422 2307 37%
c i 26.73 1499 298 0  32  254  209 32% 29 1595422 2306 37%
c i 26.73 1499 297 0  32  255  209 32% 28 1595422 2305 37%
c i 26.94 1500 288 0  35  264  216 32% 28 1595422 2304 37%
c i 27.39 1502 275 0  38  279  229 31% 27 1595422 2303 37%
c i 27.46 1502 269 0  38  286  235 31% 27 1595422 2302 37%
c - 31.27 1420 263 1  42  303  247 31% 29 197728 2302 37%
c i 31.48 1421 258 1  45  317  256 31% 29 197728 2297 37%
c i 31.64 1421 255 1  48  327  264 31% 29 197728 2295 37%
c 
c  seconds     reductions  redundant   irredundant
c          MB      restarts       trail       variables
c             level   conflicts       glue         remaining
c 
c i 31.69 1421 254 1  48  332  268 31% 28 197728 2294 37%
c i 32.19 1421 208 1  56  418  323 29% 26 197728 2293 37%
c i 32.94 1421 181 1  68  526  412 29% 28 197728 2292 37%
c i 33.01 1421 177 1  70  541  424 29% 28 197728 2291 37%
c i 33.27 1421 163 1  70  624  491 29% 27 197728 2290 37%
c i 33.35 1421 161 1  71  641  506 29% 28 197728 2289 37%
c i 33.56 1421 145 1  71  739  581 29% 26 197728 2288 37%
c i 33.58 1421 143 1  71  754  594 29% 27 197728 2287 37%
c i 33.58 1421 143 1  71  755  594 29% 27 197728 2286 37%
c i 33.58 1421 142 1  71  758  594 29% 26 197728 2285 37%
c i 33.63 1421 135 1  71  809  629 29% 27 197728 2284 37%
c i 33.65 1421 134 1  71  818  637 29% 26 197728 2283 37%
c i 33.74 1421 134 1  71  832  650 29% 27 197728 2272 37%
c i 33.97 1421 120 1  73  963  750 29% 26 197728 2266 37%
c i 34.02 1421 116 1  73  997  774 29% 25 197728 2265 37%
c } 34.04 1421 116 1  73 1000  777 29% 25 197728 2265 37%
c [ 34.04 1421  0 1  73 1000  777  0% 0 197728 2265 37%
c O 34.04 1421 52 1  73 1003  780 22% 6 197728 2265 37%
c - 34.74 1473 11 2  73 1080  704 22% 8 197414 2265 37%
c i 35.12 1473 20 2  73 1654 1046 29% 17 197414 2264 37%
c 
c  seconds    reductions  redundant   irredundant
c          MB     restarts       trail       variables
c            level   conflicts       glue         remaining
c 
c - 35.55 1473 23 3  74 2249 1117 29% 19 197412 2264 37%
c ] 36.23 1472 21 3  74 3003 1522 50% 18 197412 2264 37%
c { 36.23 1472 116 3  74 3003 1522 78% 25 197412 2264 37%
c F 36.28 1472 116 3  74 3004 1523 78% 25 197412 2264 37%
c i 36.53 1472 103 3  74 3163 1621 74% 23 197412 2263 37%
c i 36.69 1472 84 3  74 3463 1789 69% 21 197412 2262 37%
c i 36.86 1472 76 3  74 3654 1898 67% 20 197412 2261 37%
c - 37.15 1389 71 4  75 3806 1456 65% 19 197403 2261 37%
c i 37.37 1389 67 4  75 3949 1556 64% 19 197403 2260 37%
c i 38.50 1389 64 4 126 4262 1810 61% 20 197403 2259 37%
c i 38.87 1389 63 4 138 4375 1902 60% 20 197403 2258 37%
c i 38.87 1389 63 4 138 4376 1902 60% 20 197403 2257 37%
c i 39.31 1389 64 4 155 4450 1972 59% 20 197403 2256 37%
c i 39.65 1389 64 4 169 4511 2024 59% 21 197403 2255 37%
c i 39.89 1389 64 4 175 4534 2046 59% 21 197403 2254 37%
c i 39.89 1389 64 4 175 4536 2047 59% 21 197403 2253 37%
c i 39.89 1389 64 4 175 4538 2048 59% 20 197403 2252 37%
c i 39.89 1389 65 4 175 4542 2049 59% 21 197403 2249 37%
c i 41.04 1389 65 4 233 4799 2270 57% 21 197403 2248 36%
c d 42.14 1389 65 4 278 5000 2440 56% 22 197350 2240 36%
c 
c  seconds    reductions  redundant   irredundant
c          MB     restarts       trail       variables
c            level   conflicts       glue         remaining
c 
c 2 42.20 1389 65 4 278 5000 4096 56% 22 197334 2239 36%
c p 47.33 1389 65 4 278 5000 8131 56% 22 197334 2192 36%
c d 47.67 1389 65 4 278 5000 7724 56% 22 197198 2191 36%
c - 48.98 1390 57 5 292 5750 2444 54% 21 197198 2191 36%
c # 49.19 1390 55 5 292 6005 2642 54% 21 197198 2191 36%
c } 51.40 1390 51 5 360 7003 3412 53% 21 197198 2191 36%
c [ 51.40 1390 21 5 360 7003 3412 50% 18 197198 2191 36%
c - 52.08 1390 22 6 361 8080 2990 49% 18 197198 2191 36%
c I 52.71 1389 22 6 362 10011 4355 50% 18 197198 2191 36%
c - 53.83 1389 24 7 363 10800 3457 50% 19 197198 2191 36%
c - 56.11 1389 33 8 365 13908 3838 50% 27 197198 2191 36%
c 2 56.97 1390 34 8 365 15001 6025 49% 28 197197 2191 36%
c p 58.60 1390 34 8 365 15001 9513 49% 28 197197 2191 36%
c ] 58.72 1390 34 8 365 15007 9519 49% 28 197197 2191 36%
c { 58.72 1390 51 8 365 15007 9519 53% 21 197197 2191 36%
c B 58.85 1390 50 8 365 15016 9523 53% 21 197197 2191 36%
c - 60.13 1390 41 9 397 17405 4362 52% 20 197197 2191 36%
c s 60.77 1390 38 9 405 18800 5042 52% 20 195763 2191 36%
c v 62.99 1390 38 9 405 18800 5042 52% 20 195750 2191 36%
c t 63.06 1390 38 9 405 18800 5039 52% 20 195739 2191 36%
c 
c  seconds    reductions   redundant   irredundant
c          MB     restarts        trail       variables
c            level    conflicts       glue        remaining
c 
c e 63.72 1391 38 9 405 18800 4628 52% 20 193213 857 14%
c s 63.80 1391 38 9 405 18800 4628 52% 20 193143 857 14%
c W 67.01 1343 36 9 529 21020 6196 72% 20 193143 857 14%
c - 67.72 1343 36 10 586 21296 4656 72% 20 193143 857 14%
c - 70.42 1343 33 11 744 25541 5178 73% 20 193143 857 14%
c F 72.87 1343 32 11 927 28025 6735 72% 20 193143 857 14%
c 3 76.20 1343 32 11 1134 30007 8791 72% 20 193142 857 14%
c p 78.21 1343 32 11 1134 30007 10951 72% 20 193142 856 14%
c - 78.67 1343 32 12 1150 30173 5868 72% 20 193140 856 14%
c } 79.45 1343 32 12 1198 31013 6412 72% 20 193140 856 14%
c [ 79.45 1343 34 12 1198 31013 6412 131% 28 193140 856 14%
c - 80.71 1343 34 13 1200 35187 6417 111% 28 193140 856 14%
c B 81.06 1343 33 13 1201 36026 6988 108% 27 193140 856 14%
c ] 81.71 1343 33 13 1201 37178 7840 106% 27 193140 856 14%
c 1 81.71 1343 33 13 1201 37178 7840 106% 27 193140 856 14%
c 
c --- [ writing output ] -----------------------------------------------------
c 
c writing simplified CNF to DIMACS file 'simp/33.cubes6612.adj.simp1'
c * 81.71 1343 33 13 1201 37178 7840 106% 27 193140 856 14%
c opening file to write 'simp/33.cubes6612.adj.simp1'
c writing 'p cnf 6160 193140' header
c closing file 'simp/33.cubes6612.adj.simp1'
c after writing 90704616 bytes 86.5 MB
c wrote 193140 clauses in 0.64 seconds process time
c 
c --- [ writing extension ] --------------------------------------------------
c 
c writing extension stack to 'simp/33.cubes6612.adj.ext1'
c opening file to write 'simp/33.cubes6612.adj.ext1'
c closing file 'simp/33.cubes6612.adj.ext1'
c after writing 86248 bytes 0.1 MB
c wrote 3849 witnesses in 0.00 seconds process time
c 
c --- [ result ] -------------------------------------------------------------
c 
s SATISFIABLE
c 
c --- [ run-time profiling ] -------------------------------------------------
c 
c process time taken by individual solving procedures
c (percentage relative to process time for solving)
c 
c        48.68   78.63% search
c        37.13   59.97% unstable
c        19.80   31.98% parse
c        13.23   21.37% simplify
c        10.08   16.28% stable
c         8.74   14.12% probe
c         2.26    3.65% vivify
c         1.41    2.28% lucky
c         1.17    1.89% elim
c         0.16    0.25% subsume
c         0.09    0.14% ternary
c         0.06    0.10% walk
c   =================================
c        61.91   75.17% solve
c 
c last line shows process time for solving
c (percentage relative to total process time)
c 
c --- [ statistics ] ---------------------------------------------------------
c 
c chronological:              7556        20.32 %  of conflicts
c conflicts:                 37178       600.51    per second
c decisions:                107797      1741.18    per second
c eliminated:                 1334        21.66 %  of all variables
c fixed:                       817        13.26 %  of all variables
c learned:                   36318        97.69 %  per conflict
c learned_lits:            6587607       100.00 %  learned literals
c minimized:                     0         0.00 %  learned literals
c shrunken:                4290604        65.13 %  learned literals
c minishrunken:             437153         6.64 %  learned literals
c propagations:            3919266         0.06 M  per second
c reduced:                   17056        45.88 %  per conflict
c rephased:                      8      4647.25    interval
c restarts:                   1201        30.96    interval
c stabilizing:                   3        43.50 %  of conflicts
c substituted:                   9         0.15 %  of all variables
c subsumed:                  12534         0.37 %  of all clauses
c strengthened:               3795         0.11 %  of all clauses
c ternary:                    3722         0.79 %  of resolved
c vivified:                     26         0.00 %  of all clauses
c walked:                        1     37178.00    interval
c weakened:                   3032         3.02    average size
c 
c seconds are measured in process time for solving
c 
c --- [ resources ] ----------------------------------------------------------
c 
c total process time since initialization:        82.36    seconds
c total real time since initialization:           83.29    seconds
c maximum resident set size of process:         1557.27    MB
c 
c --- [ shutting down ] ------------------------------------------------------
c 
c exit 10
WARNING! DIMACS header mismatch: wrong number of variables.
============================[ Problem Statistics ]=============================
|                                                                             |
|  Number of variables:          6120                                         |
|  Number of clauses:          193142                                         |
|  Parse time:                   1.22 s                                       |
|  Simplification time:          0.04 s                                       |
|                                                                             |
============================[ Search Statistics ]====================================================
| Conflicts |          ORIGINAL         |          LEARNT          | Num Sols |      SUBGRAPHS      |
|           |    Vars  Clauses Literals |    Limit  Clauses Lit/Cl |          | Canonical Noncanon. |
=====================================================================================================
|       215 |    6029   193257 19536927 |     2000      215     32 |        0 |        68       115 |
|       368 |    6029   193260 19537025 |     2000      368     64 |        0 |        68       118 |
|       606 |    6029   193273 19537222 |     2000      606     74 |        0 |        74       131 |
|      1209 |    6029   193539 19540901 |     2000     1209     60 |        0 |       177       397 |
|      4976 |    6029   196800 19592236 |     5005     2181     15 |        0 |       981      3658 |
|      5889 |    6029   196954 19594364 |     5005     3094     35 |        0 |      1043      3812 |
|      8030 |    6029   197956 19608756 |     6315     2745     18 |        0 |      1214      4814 |
|     10130 |    6029   198348 19615609 |     6315     4845     45 |        0 |      1319      5206 |
|     12885 |    6029   198541 19618786 |     7562     4447     39 |        0 |      1357      5399 |
|     18783 |    6029   200595 19649245 |     8781     6564     31 |        0 |      1655      7453 |
|     25768 |    6029   201814 19667316 |     9995     9163     51 |        0 |      1989      8672 |
|     36041 |    6029   203438 19690545 |    12406     8847     43 |        0 |      2362     10296 |
|     53018 |    6029   207441 19742695 |    14823    12841     42 |        0 |      3021     14299 |
|     77034 |    5973   211996 19795371 |    18416    12850     33 |        0 |      3726     18854 |
=====================================================================================================
Number of solutions   : 0
Canonical subgraphs   : 3782           (12 /sec)
          order  3    : 1              (125000 /sec)
          order  4    : 1              (333333 /sec)
          order  5    : 1              (125000 /sec)
          order  6    : 1              (32258 /sec)
          order  7    : 1              (5076 /sec)
          order  8    : 2              (953 /sec)
          order  9    : 6              (296 /sec)
          order 10    : 22             (86 /sec)
          order 11    : 95             (28 /sec)
          order 12    : 592            (13 /sec)
          order 13    : 1241           (13 /sec)
          order 14    : 609            (23 /sec)
          order 15    : 628            (18 /sec)
          order 16    : 253            (7 /sec)
          order 17    : 178            (5 /sec)
          order 18    : 120            (5 /sec)
          order 19    : 29             (5 /sec)
          order 20    : 2              (5 /sec)
          order 21    : 0              (-nan /sec)
          order 22    : 0              (-nan /sec)
Noncanonical subgraphs: 19196          (177 /sec)
          order  3    : 0              (-nan /sec)
          order  4    : 0              (-nan /sec)
          order  5    : 0              (-nan /sec)
          order  6    : 0              (-nan /sec)
          order  7    : 0              (-nan /sec)
          order  8    : 0              (-nan /sec)
          order  9    : 0              (-nan /sec)
          order 10    : 0              (-nan /sec)
          order 11    : 0              (-nan /sec)
          order 12    : 0              (-nan /sec)
          order 13    : 2784           (6119 /sec)
          order 14    : 5479           (720 /sec)
          order 15    : 365            (1471 /sec)
          order 16    : 10271          (109 /sec)
          order 17    : 207            (68 /sec)
          order 18    : 71             (31 /sec)
          order 19    : 19             (21 /sec)
          order 20    : 0              (-nan /sec)
          order 21    : 0              (-nan /sec)
Canonicity checking   : 304.664 s
Noncanonicity checking: 108.497 s
Total canonicity time : 413.16 s
database reductions   : 14
restarts              : 254
conflicts             : 84720          (190 /sec)
decisions             : 152918         (0.00 % random) (344 /sec)
propagations          : 4017018        (9028 /sec)
conflict literals     : 6545005        (52.51 % deleted)
actual reward         : 0.238667
Memory used           : 230.00 MB
CPU time              : 444.951 s

UNSATISFIABLE
